Problem:    
Rows:       248
Columns:    89 (72 integer, 72 binary)
Non-zeros:  820
Status:     INTEGER OPTIMAL
Objective:  value = 54.582398 (MINimum)

   No.   Row name        Activity     Lower bound   Upper bound
------ ------------    ------------- ------------- -------------
     1 r.5                   54.5824             0               
     2 r.6                    9.8983      -493.605               
     3 r.7                   554.582             0               
     4 r.8                  -475.294       -489.11               
     5 r.9                   54.5824             0               
     6 r.10                 -437.679      -492.262               
     7 r.11                  554.582             0               
     8 r.12                 -455.576      -483.282               
     9 r.13                  554.582             0               
    10 r.14                 -470.615      -489.891               
    11 r.15                  54.5824             0               
    12 r.16                 -348.612      -477.446               
    13 r.17                  554.582             0               
    14 r.18                 -488.132       -495.03               
    15 r.19                  54.5824             0               
    16 r.20                 -360.814      -486.648               
    17 r.21                  554.582             0               
    18 r.22                 -480.723      -492.591               
    19 r.23                  54.5824             0               
    20 r.24                  13.8164      -480.062               
    21 r.25                  554.582             0               
    22 r.26                 -445.418      -477.803               
    23 r.27                  54.5824             0               
    24 r.28                 -374.166      -428.748               
    25 r.29                  54.5824             0               
    26 r.30                  32.3852      -483.947               
    27 r.31                  554.582             0               
    28 r.32                 -445.418      -492.842               
    29 r.33                  554.582             0               
    30 r.34                 -499.102      -499.102               
    31 r.35                  54.5824             0               
    32 r.36                 -494.161      -494.161               
    33 r.37                        1             1             = 
    34 r.38                        1             1             = 
    35 r.39                        1             1             = 
    36 r.40                        1             1             = 
    37 r.41                        1             1             = 
    38 r.42                        1             1             = 
    39 r.43                        1             1             = 
    40 r.44                        1             1             = 
    41 r.45                  55.4226       7.73847               
    42 r.46                 -55.4226      -493.605               
    43 r.47                   16.718        16.718               
    44 r.48                  -16.718       -489.11               
    45 r.49                  22.4869       10.1086               
    46 r.50                 -25.4869      -493.605               
    47 r.51                  123.682        22.554               
    48 r.52                 -120.682       -489.11               
    49 r.53                   4.9697        4.9697               
    50 r.54                  -4.9697      -493.605               
    51 r.55                   111.48        13.352               
    52 r.56                  -111.48       -489.11               
    53 r.57                  12.3783       7.40857               
    54 r.58                 -12.3783      -493.605               
    55 r.59                   486.11        19.938               
    56 r.60                  -486.11       -489.11               
    57 r.61                 -452.316      -474.803               
    58 r.62                 -381.064      -425.748               
    59 r.63                 -473.124      -474.803               
    60 r.64                 -401.872      -425.748               
    61 r.65                  25.4869       16.0526               
    62 r.66                 -25.4869      -493.605               
    63 r.67                   26.876         7.158               
    64 r.68                  -26.876       -489.11               
    65 r.69                        6      -490.605               
    66 r.70                 -473.192       -486.11               
    67 r.71                  501.059      -490.605               
    68 r.72                  21.8674       -486.11               
    69 r.73                  447.577       6.39486               
    70 r.74                 -444.577      -492.262               
    71 r.75                  480.282         10.89               
    72 r.76                 -483.282      -483.282               
    73 r.77                  467.064       10.1086               
    74 r.78                 -470.064      -492.262               
    75 r.79                  106.964        22.554               
    76 r.80                 -103.964      -483.282               
    77 r.81                  449.547        4.9697               
    78 r.82                 -449.547      -492.262               
    79 r.83                   94.762        13.352               
    80 r.84                  -94.762      -483.282               
    81 r.85                  456.956       7.40857               
    82 r.86                 -456.956      -492.262               
    83 r.87                  469.392        19.938               
    84 r.88                 -469.392      -483.282               
    85 r.89                  492.262       22.1972               
    86 r.90                 -492.262      -492.262               
    87 r.91                    81.41        71.252               
    88 r.92                   -81.41      -483.282               
    89 r.93                  470.064      -480.947               
    90 r.94                 -7.73847      -489.842               
    91 r.95                 -12.0392      -480.947               
    92 r.96                 -489.842      -489.842               
    93 r.97                 -438.577      -489.262               
    94 r.98                 -456.474      -480.282               
    95 r.99                  56.4819      -489.262               
    96 r.100                 38.5854      -480.282               
    97 r.101                 477.513       6.39486               
    98 r.102                -474.513      -489.891               
    99 r.103                 376.318         10.89               
   100 r.104                -379.318      -477.446               
   101 r.105                 29.9357       7.73847               
   102 r.106                -29.9357      -489.891               
   103 r.107                 396.036        16.718               
   104 r.108                -396.036      -477.446               
   105 r.109                -479.483      -486.891               
   106 r.110                 -363.48      -474.446               
   107 r.111                -106.801      -486.891               
   108 r.112                   9.202      -474.446               
   109 r.113                 486.891       7.40857               
   110 r.114                -486.891      -489.891               
   111 r.115                 365.428        19.938               
   112 r.116                -365.428      -477.446               
   113 r.117                 22.1972       22.1972               
   114 r.118                -22.1972      -489.891               
   115 r.119                 477.446        71.252               
   116 r.120                -477.446      -477.446               
   117 r.121                       0      -480.947               
   118 r.122                -477.803      -489.842               
   119 r.123                 383.997      -480.947               
   120 r.124                 -93.806      -489.842               
   121 r.125                -468.513      -486.891               
   122 r.126                 -352.51      -474.446               
   123 r.127                 26.5462      -486.891               
   124 r.128                 142.549      -474.446               
   125 r.129                  498.03       6.39486               
   126 r.130                 -495.03       -495.03               
   127 r.131                  385.52         10.89               
   128 r.132                 -388.52      -486.648               
   129 r.133                 50.4529       7.73847               
   130 r.134                -50.4529       -495.03               
   131 r.135                 405.238        16.718               
   132 r.136                -405.238      -486.648               
   133 r.137                -479.483      -486.891               
   134 r.138                 -363.48      -474.446               
   135 r.139                -106.801      -486.891               
   136 r.140                   9.202      -474.446               
   137 r.141                 7.40857       7.40857               
   138 r.142                -7.40857       -495.03               
   139 r.143                  374.63        19.938               
   140 r.144                 -374.63      -486.648               
   141 r.145                 42.7144       22.1972               
   142 r.146                -42.7144       -495.03               
   143 r.147                 486.648        71.252               
   144 r.148                -486.648      -486.648               
   145 r.149                 20.5172      -480.947               
   146 r.150                -457.286      -489.842               
   147 r.151                 393.199      -480.947               
   148 r.152                 -84.604      -489.842               
   149 r.153                 -489.03       -489.03               
   150 r.154                -361.712      -480.648               
   151 r.155                   6.029       -489.03               
   152 r.156                 133.347      -480.648               
   153 r.157                 490.622       6.39486               
   154 r.158                -487.622      -492.591               
   155 r.159                   10.89         10.89               
   156 r.160                  -13.89      -480.062               
   157 r.161                 43.0443       7.73847               
   158 r.162                -43.0443      -492.591               
   159 r.163                  30.608        16.718               
   160 r.164                 -30.608      -480.062               
   161 r.165                 10.1086       10.1086               
   162 r.166                -13.1086      -492.591               
   163 r.167                 137.572        22.554               
   164 r.168                -134.572      -480.062               
   165 r.169                 492.591        4.9697               
   166 r.170                -492.591      -492.591               
   167 r.171                  125.37        13.352               
   168 r.172                 -125.37      -480.062               
   169 r.173                -464.694      -474.803               
   170 r.174                -393.442      -425.748               
   171 r.175                -459.234      -474.803               
   172 r.176                -387.982      -425.748               
   173 r.177                 13.1086      -480.947               
   174 r.178                -464.694      -489.842               
   175 r.179                 18.5688      -480.947               
   176 r.180                -459.234      -489.842               
   177 r.181                -481.622      -486.591               
   178 r.182                 12.9181      -474.062               
   179 r.183                 13.4376      -486.591               
   180 r.184                 507.977      -474.062               
   181 r.185                -452.316      -474.803               
   182 r.186                -381.064      -425.748               
   183 r.187                -473.124      -474.803               
   184 r.188                -401.872      -425.748               
   185 r.189                 7.73847       7.73847               
   186 r.190                -7.73847      -477.803               
   187 r.191                  418.59        16.718               
   188 r.192                 -418.59      -428.748               
   189 r.193                 474.803       10.1086               
   190 r.194                -477.803      -477.803               
   191 r.195                  25.554        22.554               
   192 r.196                 -22.554      -428.748               
   193 r.197                 457.286        4.9697               
   194 r.198                -457.286      -477.803               
   195 r.199                  13.352        13.352               
   196 r.200                 -13.352      -428.748               
   197 r.201                -464.694      -474.803               
   198 r.202                -393.442      -425.748               
   199 r.203                -459.234      -474.803               
   200 r.204                -387.982      -425.748               
   201 r.205                 477.803       16.0526               
   202 r.206                -477.803      -477.803               
   203 r.207                 428.748         7.158               
   204 r.208                -428.748      -428.748               
   205 r.209                 477.513       6.39486               
   206 r.210                -474.513      -483.947               
   207 r.211                 470.124         10.89               
   208 r.212                -473.124      -492.842               
   209 r.213                 470.064      -480.947               
   210 r.214                -7.73847      -489.842               
   211 r.215                -12.0392      -480.947               
   212 r.216                -489.842      -489.842               
   213 r.217                       0      -480.947               
   214 r.218                -477.803      -489.842               
   215 r.219                 383.997      -480.947               
   216 r.220                 -93.806      -489.842               
   217 r.221                 20.5172      -480.947               
   218 r.222                -457.286      -489.842               
   219 r.223                 393.199      -480.947               
   220 r.224                 -84.604      -489.842               
   221 r.225                 13.1086      -480.947               
   222 r.226                -464.694      -489.842               
   223 r.227                 18.5688      -480.947               
   224 r.228                -459.234      -489.842               
   225 r.229                 22.1972       22.1972               
   226 r.230                -22.1972      -483.947               
   227 r.231                  71.252        71.252               
   228 r.232                 -71.252      -492.842               
   229 r.233                       6      -490.605               
   230 r.234                -473.192       -486.11               
   231 r.235                 501.059      -490.605               
   232 r.236                 21.8674       -486.11               
   233 r.237                -438.577      -489.262               
   234 r.238                -456.474      -480.282               
   235 r.239                 56.4819      -489.262               
   236 r.240                 38.5854      -480.282               
   237 r.241                -468.513      -486.891               
   238 r.242                 -352.51      -474.446               
   239 r.243                 26.5462      -486.891               
   240 r.244                 142.549      -474.446               
   241 r.245                 -489.03       -489.03               
   242 r.246                -361.712      -480.648               
   243 r.247                   6.029       -489.03               
   244 r.248                 133.347      -480.648               
   245 r.249                -481.622      -486.591               
   246 r.250                 12.9181      -474.062               
   247 r.251                 13.4376      -486.591               
   248 r.252                 507.977      -474.062               

   No. Column name       Activity     Lower bound   Upper bound
------ ------------    ------------- ------------- -------------
     1 tt                    54.5824             0               
     2 s_1_1        *              0             0             1 
     3 t_1_1                 47.6841             0               
     4 s_1_6        *              1             0             1 
     5 s_2_1        *              1             0             1 
     6 t_2_1                  26.876             0               
     7 s_2_6        *              0             0             1 
     8 s_1_2        *              0             0             1 
     9 t_1_2                 492.262             0               
    10 s_1_7        *              0             0             1 
    11 s_2_2        *              1             0             1 
    12 t_2_2                  10.158             0               
    13 s_2_7        *              1             0             1 
    14 s_1_3        *              1             0             1 
    15 t_1_3                 22.1972             0               
    16 s_2_3        *              0             0             1 
    17 t_2_3                 406.194             0               
    18 s_1_4        *              1             0             1 
    19 t_1_4                 42.7144             0               
    20 s_2_4        *              0             0             1 
    21 t_2_4                 415.396             0               
    22 s_1_5        *              1             0             1 
    23 t_1_5                 35.3058             0               
    24 s_2_5        *              0             0             1 
    25 t_2_5                  40.766             0               
    26 t_1_6                       0             0               
    27 t_2_6                 428.748             0               
    28 t_1_7                 22.1972             0               
    29 t_2_7                       0             0               
    30 s_1_8        *              1             0             1 
    31 t_1_8                 53.6841             0               
    32 s_2_8        *              0             0             1 
    33 t_2_8                 548.743             0               
    34 u_1_1_2      *              1             0             1 
    35 u_2_1_2      *              0             0             1 
    36 u_1_1_3      *              0             0             1 
    37 u_2_1_3      *              1             0             1 
    38 u_1_1_4      *              0             0             1 
    39 u_2_1_4      *              1             0             1 
    40 u_1_1_5      *              0             0             1 
    41 u_2_1_5      *              1             0             1 
    42 u_1_1_7      *              0             0             1 
    43 u_2_1_7      *              0             0             1 
    44 u_1_2_1      *              0             0             1 
    45 u_2_2_1      *              1             0             1 
    46 u_1_2_3      *              0             0             1 
    47 u_2_2_3      *              1             0             1 
    48 u_1_2_4      *              0             0             1 
    49 u_2_2_4      *              1             0             1 
    50 u_1_2_5      *              0             0             1 
    51 u_2_2_5      *              1             0             1 
    52 u_1_2_6      *              0             0             1 
    53 u_2_2_6      *              1             0             1 
    54 u_1_3_1      *              1             0             1 
    55 u_2_3_1      *              0             0             1 
    56 u_1_3_2      *              1             0             1 
    57 u_2_3_2      *              0             0             1 
    58 u_1_3_5      *              1             0             1 
    59 u_2_3_5      *              0             0             1 
    60 u_1_3_6      *              0             0             1 
    61 u_2_3_6      *              1             0             1 
    62 u_1_4_1      *              1             0             1 
    63 u_2_4_1      *              0             0             1 
    64 u_1_4_2      *              1             0             1 
    65 u_2_4_2      *              0             0             1 
    66 u_1_4_5      *              0             0             1 
    67 u_2_4_5      *              0             0             1 
    68 u_1_4_6      *              0             0             1 
    69 u_2_4_6      *              1             0             1 
    70 u_1_5_1      *              1             0             1 
    71 u_2_5_1      *              0             0             1 
    72 u_1_5_2      *              1             0             1 
    73 u_2_5_2      *              0             0             1 
    74 u_1_5_3      *              0             0             1 
    75 u_2_5_3      *              1             0             1 
    76 u_1_5_4      *              1             0             1 
    77 u_2_5_4      *              1             0             1 
    78 u_1_6_2      *              1             0             1 
    79 u_2_6_2      *              0             0             1 
    80 u_1_6_3      *              1             0             1 
    81 u_2_6_3      *              0             0             1 
    82 u_1_6_4      *              1             0             1 
    83 u_2_6_4      *              0             0             1 
    84 u_1_6_7      *              1             0             1 
    85 u_2_6_7      *              0             0             1 
    86 u_1_7_1      *              1             0             1 
    87 u_2_7_1      *              1             0             1 
    88 u_1_7_6      *              0             0             1 
    89 u_2_7_6      *              1             0             1 

Integer feasibility conditions:

KKT.PE: max.abs.err = 0.00e+00 on row 0
        max.rel.err = 0.00e+00 on row 0
        High quality

KKT.PB: max.abs.err = 1.07e-14 on row 225
        max.rel.err = 4.59e-16 on row 225
        High quality

End of output
